5 5
1 38 4 41 2 98 0 40 3 64
1 89 3 16 0 82 4 77 2 59
2 91 1 98 0 11 3 1 4 13
1 30 3 69 4 18 2 78 0 13
3 32 2 71 1 72 0 50 4 71
-1
0 1 3 4 5
0 2 3 4 5
0 2 4 5
0 1 5
0 2 5
-2
60 239 275 318
153 245 296 428
262 248 292
33 222
120 466

405 10
7 23 3 12 19
0 5 15 22 11
10 21 2 18 9
20 6 16 4 13
1 17 8 24 14
